\ Model Production Factory
\ LP format - for model browsing. Use MPS format to capture full model detail.
Minimize
  2000 Z[0,0] + 2000 Z[1,0] + 2500 Z[2,0] + 2500 Z[3,0] + 2500 Z[4,0]
   + 3000 Z[5,0] + 3000 Z[6,0] + 3000 Z[7,0] + 2500 Z[8,0] + 2500 Z[9,0]
   + 2000 Z[10,0] + 2000 Z[11,0] + 2000 Z[0,1] + 2000 Z[1,1] + 2500 Z[2,1]
   + 2500 Z[3,1] + 2500 Z[4,1] + 3000 Z[5,1] + 3000 Z[6,1] + 3000 Z[7,1]
   + 2500 Z[8,1] + 2500 Z[9,1] + 2000 Z[10,1] + 2000 Z[11,1] + 2000 Z[0,2]
   + 2000 Z[1,2] + 2500 Z[2,2] + 2500 Z[3,2] + 2500 Z[4,2] + 3000 Z[5,2]
   + 3000 Z[6,2] + 3000 Z[7,2] + 2500 Z[8,2] + 2500 Z[9,2] + 2000 Z[10,2]
   + 2000 Z[11,2] + 6 H[0,0] + 6 H[1,0] + 6 H[2,0] + 6 H[3,0] + 6 H[4,0]
   + 6 H[5,0] + 6 H[6,0] + 6 H[7,0] + 6 H[8,0] + 6 H[9,0] + 6 H[10,0]
   + 6 H[11,0] + 8 H[0,1] + 8 H[1,1] + 8 H[2,1] + 8 H[3,1] + 8 H[4,1]
   + 8 H[5,1] + 8 H[6,1] + 8 H[7,1] + 8 H[8,1] + 8 H[9,1] + 8 H[10,1]
   + 8 H[11,1] + 10 H[0,2] + 10 H[1,2] + 10 H[2,2] + 10 H[3,2] + 10 H[4,2]
   + 10 H[5,2] + 10 H[6,2] + 10 H[7,2] + 10 H[8,2] + 10 H[9,2] + 10 H[10,2]
   + 10 H[11,2] + 2000 X[0] + 2000 X[1] + 2000 X[2] + 2000 X[3] + 2000 X[4]
   + 2000 X[5] + 2000 X[6] + 2000 X[7] + 2000 X[8] + 2000 X[9] + 2000 X[10]
   + 2000 X[11] + 5000 Y[0] + 5000 Y[1] + 5000 Y[2] + 5000 Y[3] + 5000 Y[4]
   + 5000 Y[5] + 5000 Y[6] + 5000 Y[7] + 5000 Y[8] + 5000 Y[9] + 5000 Y[10]
   + 5000 Y[11]
Subject To
 con1[0]-: - 15 Z[0,0] + H[0,0] = -750
 con1[1]-: - 20 Z[0,1] + H[0,1] = -550
 con1[2]-: - 10 Z[0,2] + H[0,2] = -550
 con2[1,0]-: - 15 Z[1,0] - H[0,0] + H[1,0] = -650
 con2[2,0]-: - 15 Z[2,0] - H[1,0] + H[2,0] = -600
 con2[3,0]-: - 15 Z[3,0] - H[2,0] + H[3,0] = -500
 con2[4,0]-: - 15 Z[4,0] - H[3,0] + H[4,0] = -130.3
 con2[5,0]-: - 15 Z[5,0] - H[4,0] + H[5,0] = -650
 con2[6,0]-: - 15 Z[6,0] - H[5,0] + H[6,0] = -600
 con2[7,0]-: - 15 Z[7,0] - H[6,0] + H[7,0] = -750
 con2[8,0]-: - 15 Z[8,0] - H[7,0] + H[8,0] = -650
 con2[9,0]-: - 15 Z[9,0] - H[8,0] + H[9,0] = -600
 con2[10,0]-: - 15 Z[10,0] - H[9,0] + H[10,0] = -500
 con2[11,0]-: - 15 Z[11,0] - H[10,0] + H[11,0] = -550
 con2[1,1]-: - 20 Z[1,1] - H[0,1] + H[1,1] = -500
 con2[2,1]-: - 20 Z[2,1] - H[1,1] + H[2,1] = -450
 con2[3,1]-: - 20 Z[3,1] - H[2,1] + H[3,1] = -275
 con2[4,1]-: - 20 Z[4,1] - H[3,1] + H[4,1] = -350
 con2[5,1]-: - 20 Z[5,1] - H[4,1] + H[5,1] = -300
 con2[6,1]-: - 20 Z[6,1] - H[5,1] + H[6,1] = -500
 con2[7,1]-: - 20 Z[7,1] - H[6,1] + H[7,1] = -600
 con2[8,1]-: - 20 Z[8,1] - H[7,1] + H[8,1] = -500
 con2[9,1]-: - 20 Z[9,1] - H[8,1] + H[9,1] = -400.6
 con2[10,1]-: - 20 Z[10,1] - H[9,1] + H[10,1] = -300
 con2[11,1]-: - 20 Z[11,1] - H[10,1] + H[11,1] = -250
 con2[1,2]-: - 10 Z[1,2] - H[0,2] + H[1,2] = -500
 con2[2,2]-: - 10 Z[2,2] - H[1,2] + H[2,2] = -500
 con2[3,2]-: - 10 Z[3,2] - H[2,2] + H[3,2] = -320.5
 con2[4,2]-: - 10 Z[4,2] - H[3,2] + H[4,2] = -300
 con2[5,2]-: - 10 Z[5,2] - H[4,2] + H[5,2] = -150.2
 con2[6,2]-: - 10 Z[6,2] - H[5,2] + H[6,2] = -225
 con2[7,2]-: - 10 Z[7,2] - H[6,2] + H[7,2] = -500
 con2[8,2]-: - 10 Z[8,2] - H[7,2] + H[8,2] = -450
 con2[9,2]-: - 10 Z[9,2] - H[8,2] + H[9,2] = -350
 con2[10,2]-: - 10 Z[10,2] - H[9,2] + H[10,2] = -300
 con2[11,2]-: - 10 Z[11,2] - H[10,2] + H[11,2] = -350
 con3[2]-: Z[0,0] + Z[0,1] + Z[0,2] - 100000 Y[0] <= 0
 con4[1,2]-: - Z[0,0] + Z[1,0] - Z[0,1] + Z[1,1] - Z[0,2] + Z[1,2]
   - 100000 Y[1] <= 0
 con4[2,2]-: - Z[1,0] + Z[2,0] - Z[1,1] + Z[2,1] - Z[1,2] + Z[2,2]
   - 100000 Y[2] <= 0
 con4[3,2]-: - Z[2,0] + Z[3,0] - Z[2,1] + Z[3,1] - Z[2,2] + Z[3,2]
   - 100000 Y[3] <= 0
 con4[4,2]-: - Z[3,0] + Z[4,0] - Z[3,1] + Z[4,1] - Z[3,2] + Z[4,2]
   - 100000 Y[4] <= 0
 con4[5,2]-: - Z[4,0] + Z[5,0] - Z[4,1] + Z[5,1] - Z[4,2] + Z[5,2]
   - 100000 Y[5] <= 0
 con4[6,2]-: - Z[5,0] + Z[6,0] - Z[5,1] + Z[6,1] - Z[5,2] + Z[6,2]
   - 100000 Y[6] <= 0
 con4[7,2]-: - Z[6,0] + Z[7,0] - Z[6,1] + Z[7,1] - Z[6,2] + Z[7,2]
   - 100000 Y[7] <= 0
 con4[8,2]-: - Z[7,0] + Z[8,0] - Z[7,1] + Z[8,1] - Z[7,2] + Z[8,2]
   - 100000 Y[8] <= 0
 con4[9,2]-: - Z[8,0] + Z[9,0] - Z[8,1] + Z[9,1] - Z[8,2] + Z[9,2]
   - 100000 Y[9] <= 0
 con4[10,2]-: - Z[9,0] + Z[10,0] - Z[9,1] + Z[10,1] - Z[9,2] + Z[10,2]
   - 100000 Y[10] <= 0
 con4[11,2]-: - Z[10,0] + Z[11,0] - Z[10,1] + Z[11,1] - Z[10,2] + Z[11,2]
   - 100000 Y[11] <= 0
 con5[2,1]-: - Z[0,0] + Z[1,0] - Z[0,1] + Z[1,1] - Z[0,2] + Z[1,2] >= 0
 con5[2,2]-: - Z[1,0] + Z[2,0] - Z[1,1] + Z[2,1] - Z[1,2] + Z[2,2] >= 0
 con5[2,3]-: - Z[2,0] + Z[3,0] - Z[2,1] + Z[3,1] - Z[2,2] + Z[3,2] >= 0
 con5[2,4]-: - Z[3,0] + Z[4,0] - Z[3,1] + Z[4,1] - Z[3,2] + Z[4,2] >= 0
 con5[2,5]-: - Z[4,0] + Z[5,0] - Z[4,1] + Z[5,1] - Z[4,2] + Z[5,2] >= 0
 con6[2,1]-: Z[7,0] + Z[7,1] + Z[7,2] - X[1] >= 0
 con6[2,2]-: Z[8,0] + Z[8,1] + Z[8,2] - X[2] >= 0
 con6[2,3]-: Z[9,0] + Z[9,1] + Z[9,2] - X[3] >= 0
 con6[2,4]-: Z[10,0] + Z[10,1] + Z[10,2] - X[4] >= 0
 con6[2,5]-: Z[11,0] + Z[11,1] + Z[11,2] - X[5] >= 0
 con7[0,2]-: Z[0,0] - Z[1,0] + Z[0,1] - Z[1,1] + Z[0,2] - Z[1,2] - X[0]
   <= 0
 con7[1,2]-: Z[1,0] - Z[2,0] + Z[1,1] - Z[2,1] + Z[1,2] - Z[2,2] - X[1]
   <= 0
 con7[2,2]-: Z[2,0] - Z[3,0] + Z[2,1] - Z[3,1] + Z[2,2] - Z[3,2] - X[2]
   <= 0
 con7[3,2]-: Z[3,0] - Z[4,0] + Z[3,1] - Z[4,1] + Z[3,2] - Z[4,2] - X[3]
   <= 0
 con7[4,2]-: Z[4,0] - Z[5,0] + Z[4,1] - Z[5,1] + Z[4,2] - Z[5,2] - X[4]
   <= 0
 con7[5,2]-: Z[5,0] - Z[6,0] + Z[5,1] - Z[6,1] + Z[5,2] - Z[6,2] - X[5]
   <= 0
 con7[6,2]-: Z[6,0] - Z[7,0] + Z[6,1] - Z[7,1] + Z[6,2] - Z[7,2] - X[6]
   <= 0
 con7[7,2]-: Z[7,0] - Z[8,0] + Z[7,1] - Z[8,1] + Z[7,2] - Z[8,2] - X[7]
   <= 0
 con7[8,2]-: Z[8,0] - Z[9,0] + Z[8,1] - Z[9,1] + Z[8,2] - Z[9,2] - X[8]
   <= 0
 con7[9,2]-: Z[9,0] - Z[10,0] + Z[9,1] - Z[10,1] + Z[9,2] - Z[10,2] - X[9]
   <= 0
 con7[10,2]-: Z[10,0] - Z[11,0] + Z[10,1] - Z[11,1] + Z[10,2] - Z[11,2]
   - X[10] <= 0
Bounds
Binaries
 Y[0] Y[1] Y[2] Y[3] Y[4] Y[5] Y[6] Y[7] Y[8] Y[9] Y[10] Y[11]
Generals
 Z[0,0] Z[1,0] Z[2,0] Z[3,0] Z[4,0] Z[5,0] Z[6,0] Z[7,0] Z[8,0] Z[9,0]
 Z[10,0] Z[11,0] Z[0,1] Z[1,1] Z[2,1] Z[3,1] Z[4,1] Z[5,1] Z[6,1] Z[7,1]
 Z[8,1] Z[9,1] Z[10,1] Z[11,1] Z[0,2] Z[1,2] Z[2,2] Z[3,2] Z[4,2] Z[5,2]
 Z[6,2] Z[7,2] Z[8,2] Z[9,2] Z[10,2] Z[11,2]
End
